# Solution for model GasLib-40
# Objective value = 5.3275154128916640e+01
loadshed[innode_1] 0
loadshed[innode_2] 0
loadshed[innode_3] 0
loadshed[innode_4] 0
loadshed[innode_5] 0
loadshed[innode_6] 0
loadshed[innode_7] 0
loadshed[innode_8] 0
loadshed[source_1] -0.176071547479006
loadshed[source_2] 1.3912541699832148e-01
loadshed[source_3] 3.7393810037123776e-01
loadshed[sink_1] 3.9192837329017294e-01
loadshed[sink_2] 0
loadshed[sink_3] 0
loadshed[sink_4] 0
loadshed[sink_5] 0
loadshed[sink_6] 0
loadshed[sink_7] 0
loadshed[sink_8] 0
loadshed[sink_9] 0
loadshed[sink_10] 0
loadshed[sink_11] 0
loadshed[sink_12] 1
loadshed[sink_13] 0
loadshed[sink_14] 0
loadshed[sink_15] 0
loadshed[sink_16] 0
loadshed[sink_17] 0
loadshed[sink_18] 0
loadshed[sink_19] 0
loadshed[sink_20] 0
loadshed[sink_21] 1
loadshed[sink_22] 0
loadshed[sink_23] 0
loadshed[sink_24] 0.865660668987532
loadshed[sink_25] 0
loadshed[sink_26] 0
loadshed[sink_27] 0
loadshed[sink_28] 0
loadshed[sink_29] 0
flow[source_1,sink_3] 185.925477627497
flow[innode_1,sink_16] 1.6354166666666970e+01
flow[innode_6,sink_13] 1.5504867048286018e+01
flow[sink_13,sink_14] -0.84929961838065
flow[sink_14,sink_10] -1.7203466285047398e+01
flow[sink_25,sink_26] 1.1220977708071752e+02
flow[sink_26,sink_9] 0
flow[sink_9,sink_18] -1.6354166666669244e+01
flow[sink_26,sink_4] 9.5855610414050844e+01
flow[sink_4,sink_20] -1.4442252285786791e+01
flow[sink_18,sink_6] -3.2708333333335915e+01
flow[sink_25,innode_8] -1.5321714429416062e+02
flow[sink_6,sink_7] -7.5361171395152837e+01
flow[sink_6,sink_22] 26.2986713951503
flow[sink_7,sink_24] 2.1970078092664060e+00
flow[sink_22,sink_1] 9.9445047284836310e+00
flow[sink_24,sink_21] 0
flow[sink_21,sink_12] 0
flow[sink_7,sink_5] -9.3912345871085932e+01
flow[sink_5,sink_17] -1.1026651253775260e+02
flow[sink_17,sink_4] -9.3943696033170980e+01
flow[sink_17,sink_8] -3.2676983171248295e+01
flow[sink_3,sink_23] 16.3541666666697
flow[sink_8,sink_20] -4.9031149837914967e+01
flow[sink_25,sink_20] 7.9827568790368417e+01
flow[sink_25,sink_15] -70.6792352918795
flow[sink_15,sink_29] -8.7033401958546165e+01
flow[sink_29,sink_28] 1.6354166666667879e+01
flow[sink_29,sink_2] 1.6354166666684250e+01
flow[sink_2,sink_15] 0
flow[sink_29,innode_7] -1.3609590195856396e+02
flow[innode_4,sink_19] 9.8974299618394255e+01
flow[sink_19,innode_3] 3.2337511838611746e+01
flow[innode_4,innode_5] 0
flow[sink_27,innode_5] 0
flow[sink_27,sink_19] -1.6354166666679703e+01
flow[sink_10,sink_11] 3.2708333333333641e+01
flow[sink_10,innode_2] -3.3928454446436142e+01
flow[sink_10,innode_3] -3.2337511838611746e+01
flow[innode_6,sink_25] -1.5504867048286018e+01
flow[sink_11,innode_1] 1.6354166666666970e+01
flow[sink_19,innode_2] 3.3928454446436142e+01
flow[source_3,innode_4] 9.8974299618394255e+01
flow[source_2,innode_7] 1.3609590195856396e+02
flow[sink_3,innode_8] 1.5321714429416062e+02
pressure[innode_1] 7.5058588680302122e+01
pressure[innode_2] 7.7003548934506071e+01
pressure[innode_3] 7.6931941176365441e+01
pressure[innode_4] 81.01325
pressure[innode_5] 81.01325
pressure[innode_6] 7.4480546035723080e+01
pressure[innode_7] 81.01325
pressure[innode_8] 8.0391772154398140e+01
pressure[source_1] 81.01325
pressure[source_2] 81.01325
pressure[source_3] 81.01325
pressure[sink_1] 1.0132500000000002e+00
pressure[sink_2] 7.6958948279228139e+01
pressure[sink_3] 8.0391772154398140e+01
pressure[sink_4] 5.4390346939638690e+01
pressure[sink_5] 4.2586070492195660e+01
pressure[sink_6] 2.49413099062985
pressure[sink_7] 3.52866024004051
pressure[sink_8] 5.2033116114779091e+01
pressure[sink_9] 1.0289786113236121e+00
pressure[sink_10] 7.5210289987905668e+01
pressure[sink_11] 7.5058588680302122e+01
pressure[sink_12] 1.01325
pressure[sink_13] 7.4395070294789875e+01
pressure[sink_14] 7.4396590188801284e+01
pressure[sink_15] 7.4823409198278810e+01
pressure[sink_16] 7.4036938845484443e+01
pressure[sink_17] 5.0800128647013160e+01
pressure[sink_18] 1.6207211051233665e+00
pressure[sink_19] 7.7003548934506071e+01
pressure[sink_20] 5.5449897720132114e+01
pressure[sink_21] 1.01325
pressure[sink_22] 1.6600978328355169e+00
pressure[sink_23] 8.0227054142738353e+01
pressure[sink_24] 1.01325
pressure[sink_25] 7.4480546035723080e+01
pressure[sink_26] 6.6577677333075826e+01
pressure[sink_27] 7.6652418937362569e+01
pressure[sink_28] 7.7077935504074617e+01
pressure[sink_29] 7.7373217777691792e+01
interdiction[source_1,sink_3] 0
interdiction[innode_1,sink_16] 0
interdiction[innode_6,sink_13] 0
interdiction[sink_13,sink_14] 0
interdiction[sink_14,sink_10] 0
interdiction[sink_25,sink_26] 0
interdiction[sink_26,sink_9] 1
interdiction[sink_9,sink_18] 0
interdiction[sink_26,sink_4] 0
interdiction[sink_4,sink_20] 0
interdiction[sink_18,sink_6] 0
interdiction[sink_25,innode_8] 0
interdiction[sink_6,sink_7] 0
interdiction[sink_6,sink_22] 0
interdiction[sink_7,sink_24] 0
interdiction[sink_22,sink_1] 0
interdiction[sink_24,sink_21] 0
interdiction[sink_21,sink_12] 0
interdiction[sink_7,sink_5] 0
interdiction[sink_5,sink_17] 0
interdiction[sink_17,sink_4] 0
interdiction[sink_17,sink_8] 0
interdiction[sink_3,sink_23] 0
interdiction[sink_8,sink_20] 0
interdiction[sink_25,sink_20] 0
interdiction[sink_25,sink_15] 0
interdiction[sink_15,sink_29] 0
interdiction[sink_29,sink_28] 0
interdiction[sink_29,sink_2] 0
interdiction[sink_2,sink_15] 1
interdiction[sink_29,innode_7] 0
interdiction[innode_4,sink_19] 0
interdiction[sink_19,innode_3] 0
interdiction[innode_4,innode_5] 0
interdiction[sink_27,innode_5] 1
interdiction[sink_27,sink_19] 0
interdiction[sink_10,sink_11] 0
interdiction[sink_10,innode_2] 0
interdiction[sink_10,innode_3] 0
interdiction[innode_6,sink_25] 0
interdiction[sink_11,innode_1] 0
interdiction[sink_19,innode_2] 0
interdiction[source_3,innode_4] 0
interdiction[source_2,innode_7] 0
interdiction[sink_3,innode_8] 0
WCcheckFlow[source_1,sink_3] 39
WCcheckFlow[innode_1,sink_16] 1
WCcheckFlow[innode_6,sink_13] 13
WCcheckFlow[sink_13,sink_14] 12
WCcheckFlow[sink_14,sink_10] 11
WCcheckFlow[sink_25,sink_26] 15
WCcheckFlow[sink_26,sink_9] 0
WCcheckFlow[sink_9,sink_18] -1
WCcheckFlow[sink_26,sink_4] 14
WCcheckFlow[sink_4,sink_20] 1
WCcheckFlow[sink_18,sink_6] -2
WCcheckFlow[sink_25,innode_8] -36
WCcheckFlow[sink_6,sink_7] -5
WCcheckFlow[sink_6,sink_22] 2
WCcheckFlow[sink_7,sink_24] 3
WCcheckFlow[sink_22,sink_1] 1
WCcheckFlow[sink_24,sink_21] 2
WCcheckFlow[sink_21,sink_12] 1
WCcheckFlow[sink_7,sink_5] -9
WCcheckFlow[sink_5,sink_17] -10
WCcheckFlow[sink_17,sink_4] -12
WCcheckFlow[sink_17,sink_8] 1
WCcheckFlow[sink_3,sink_23] 1
WCcheckFlow[sink_8,sink_20] 0
WCcheckFlow[sink_25,sink_20] 0
WCcheckFlow[sink_25,sink_15] 6
WCcheckFlow[sink_15,sink_29] 5
WCcheckFlow[sink_29,sink_28] 1
WCcheckFlow[sink_29,sink_2] 1
WCcheckFlow[sink_2,sink_15] 0
WCcheckFlow[sink_29,innode_7] 2
WCcheckFlow[innode_4,sink_19] -3
WCcheckFlow[sink_19,innode_3] -5
WCcheckFlow[innode_4,innode_5] 1
WCcheckFlow[sink_27,innode_5] 0
WCcheckFlow[sink_27,sink_19] -1
WCcheckFlow[sink_10,sink_11] 3
WCcheckFlow[sink_10,innode_2] 1
WCcheckFlow[sink_10,innode_3] 6
WCcheckFlow[innode_6,sink_25] -14
WCcheckFlow[sink_11,innode_1] 2
WCcheckFlow[sink_19,innode_2] 0
WCcheckFlow[source_3,innode_4] -1
WCcheckFlow[source_2,innode_7] -1
WCcheckFlow[sink_3,innode_8] 37
